(declare-const GEN2 (_ BitVec 8))
(declare-const GEN1 (_ BitVec 8))
(declare-const a (_ BitVec 8))
(declare-const b (_ BitVec 8))
(declare-fun p (Bool) Bool)
(assert (p (bvule a (bvadd GEN1 b))))
(assert (bvule a (bvadd GEN2 b)))
(set-option :produce-models true)
(apply elim-uncnstr :print-model-converter true)